24° run output:
{
    "Function": "euclidB500.tsp",
    "Problem dimension": [
        89,
        310,
        76,
        481,
        351,
        7,
        386,
        248,
        308,
        284,
        204,
        252,
        272,
        489,
        410,
        228,
        358,
        115,
        352,
        424,
        353,
        64,
        195,
        36,
        117,
        98,
        406,
        320,
        168,
        119,
        408,
        391,
        400,
        245,
        249,
        333,
        420,
        114,
        476,
        271,
        421,
        337,
        144,
        479,
        437,
        461,
        146,
        148,
        109,
        467,
        423,
        443,
        26,
        416,
        157,
        237,
        227,
        435,
        309,
        497,
        446,
        260,
        162,
        430,
        83,
        487,
        350,
        68,
        10,
        58,
        347,
        494,
        474,
        171,
        361,
        94,
        238,
        71,
        326,
        31,
        356,
        319,
        371,
        266,
        196,
        427,
        102,
        54,
        153,
        6,
        258,
        55,
        186,
        63,
        142,
        376,
        355,
        241,
        397,
        286,
        411,
        130,
        327,
        27,
        242,
        131,
        45,
        229,
        370,
        334,
        106,
        100,
        32,
        67,
        448,
        42,
        180,
        402,
        464,
        223,
        169,
        190,
        492,
        317,
        436,
        382,
        179,
        123,
        234,
        107,
        379,
        133,
        484,
        331,
        399,
        459,
        57,
        163,
        188,
        185,
        28,
        226,
        297,
        401,
        90,
        216,
        200,
        154,
        203,
        304,
        299,
        275,
        8,
        230,
        151,
        61,
        37,
        455,
        447,
        292,
        380,
        453,
        367,
        41,
        414,
        56,
        121,
        393,
        217,
        202,
        289,
        176,
        264,
        246,
        194,
        85,
        105,
        213,
        16,
        219,
        293,
        143,
        4,
        210,
        303,
        374,
        183,
        288,
        291,
        378,
        388,
        231,
        440,
        14,
        482,
        405,
        301,
        62,
        425,
        330,
        261,
        362,
        451,
        277,
        256,
        381,
        349,
        428,
        197,
        34,
        372,
        80,
        199,
        11,
        118,
        51,
        108,
        403,
        354,
        441,
        290,
        318,
        454,
        269,
        409,
        222,
        120,
        460,
        412,
        394,
        268,
        1,
        471,
        498,
        468,
        295,
        404,
        160,
        12,
        274,
        243,
        84,
        214,
        323,
        145,
        0,
        35,
        314,
        209,
        82,
        478,
        439,
        407,
        283,
        173,
        135,
        225,
        134,
        235,
        30,
        99,
        491,
        201,
        126,
        187,
        132,
        92,
        431,
        75,
        312,
        483,
        278,
        285,
        344,
        340,
        341,
        46,
        156,
        294,
        244,
        493,
        364,
        192,
        127,
        29,
        93,
        60,
        33,
        128,
        298,
        433,
        175,
        218,
        432,
        164,
        415,
        463,
        383,
        377,
        373,
        221,
        480,
        395,
        47,
        150,
        442,
        363,
        276,
        208,
        147,
        182,
        366,
        207,
        419,
        155,
        287,
        167,
        313,
        139,
        387,
        316,
        307,
        2,
        322,
        141,
        20,
        336,
        488,
        49,
        136,
        499,
        158,
        449,
        152,
        240,
        321,
        191,
        50,
        279,
        263,
        81,
        324,
        253,
        172,
        469,
        48,
        52,
        165,
        140,
        472,
        21,
        332,
        177,
        389,
        338,
        104,
        66,
        485,
        125,
        413,
        193,
        24,
        232,
        255,
        458,
        211,
        25,
        392,
        184,
        3,
        348,
        18,
        390,
        77,
        473,
        457,
        39,
        422,
        101,
        215,
        113,
        212,
        170,
        110,
        306,
        257,
        375,
        396,
        233,
        112,
        149,
        368,
        53,
        159,
        267,
        259,
        444,
        86,
        429,
        87,
        329,
        475,
        13,
        254,
        360,
        325,
        496,
        40,
        78,
        129,
        189,
        305,
        91,
        417,
        418,
        124,
        315,
        438,
        137,
        181,
        300,
        456,
        178,
        38,
        96,
        111,
        262,
        251,
        359,
        462,
        490,
        206,
        5,
        281,
        122,
        79,
        174,
        15,
        465,
        103,
        250,
        74,
        450,
        73,
        280,
        265,
        495,
        486,
        95,
        445,
        345,
        43,
        426,
        369,
        328,
        19,
        239,
        224,
        343,
        466,
        270,
        384,
        470,
        23,
        44,
        161,
        138,
        434,
        452,
        17,
        398,
        296,
        166,
        311,
        342,
        335,
        97,
        282,
        236,
        65,
        385,
        70,
        220,
        477,
        9,
        198,
        346,
        205,
        88,
        365,
        357,
        273,
        116,
        59,
        22,
        72,
        339,
        302,
        69,
        247
    ],
    "Global Optimum": 0,
    "Algorithm": "Genetic algorithm",
    "Parameters": {
        "population": 30,
        "offspring": 30,
        "mutation probability": 0.002,
        "crossover probability": 0.9
    },
    "Fitness": 564168,
    "Solution": [
        89,
        310,
        76,
        481,
        351,
        7,
        386,
        248,
        308,
        284,
        204,
        252,
        272,
        489,
        410,
        228,
        358,
        115,
        352,
        424,
        353,
        64,
        195,
        36,
        117,
        98,
        406,
        320,
        168,
        119,
        408,
        391,
        400,
        245,
        249,
        333,
        420,
        114,
        476,
        271,
        421,
        337,
        144,
        479,
        437,
        461,
        146,
        148,
        109,
        467,
        423,
        443,
        26,
        416,
        157,
        237,
        227,
        435,
        309,
        497,
        446,
        260,
        162,
        430,
        83,
        487,
        350,
        68,
        10,
        58,
        347,
        494,
        474,
        171,
        361,
        94,
        238,
        71,
        326,
        31,
        356,
        319,
        371,
        266,
        196,
        427,
        102,
        54,
        153,
        6,
        258,
        55,
        186,
        63,
        142,
        376,
        355,
        241,
        397,
        286,
        411,
        130,
        327,
        27,
        242,
        131,
        45,
        229,
        370,
        334,
        106,
        100,
        32,
        67,
        448,
        42,
        180,
        402,
        464,
        223,
        169,
        190,
        492,
        317,
        436,
        382,
        179,
        123,
        234,
        107,
        379,
        133,
        484,
        331,
        399,
        459,
        57,
        163,
        188,
        185,
        28,
        226,
        297,
        401,
        90,
        216,
        200,
        154,
        203,
        304,
        299,
        275,
        8,
        230,
        151,
        61,
        37,
        455,
        447,
        292,
        380,
        453,
        367,
        41,
        414,
        56,
        121,
        393,
        217,
        202,
        289,
        176,
        264,
        246,
        194,
        85,
        105,
        213,
        16,
        219,
        293,
        143,
        4,
        210,
        303,
        374,
        183,
        288,
        291,
        378,
        388,
        231,
        440,
        14,
        482,
        405,
        301,
        62,
        425,
        330,
        261,
        362,
        451,
        277,
        256,
        381,
        349,
        428,
        197,
        34,
        372,
        80,
        199,
        11,
        118,
        51,
        108,
        403,
        354,
        441,
        290,
        318,
        454,
        269,
        409,
        222,
        120,
        460,
        412,
        394,
        268,
        1,
        471,
        498,
        468,
        295,
        404,
        160,
        12,
        274,
        243,
        84,
        214,
        323,
        145,
        0,
        35,
        314,
        209,
        82,
        478,
        439,
        407,
        283,
        173,
        135,
        225,
        134,
        235,
        30,
        99,
        491,
        201,
        126,
        187,
        132,
        92,
        431,
        75,
        312,
        483,
        278,
        285,
        344,
        340,
        341,
        46,
        156,
        294,
        244,
        493,
        364,
        192,
        127,
        29,
        93,
        60,
        33,
        128,
        298,
        433,
        175,
        218,
        432,
        164,
        415,
        463,
        383,
        377,
        373,
        221,
        480,
        395,
        47,
        150,
        442,
        363,
        276,
        208,
        147,
        182,
        366,
        207,
        419,
        155,
        287,
        167,
        313,
        139,
        387,
        316,
        307,
        2,
        322,
        141,
        20,
        336,
        488,
        49,
        136,
        499,
        158,
        449,
        152,
        240,
        321,
        191,
        50,
        279,
        263,
        81,
        324,
        253,
        172,
        469,
        48,
        52,
        165,
        140,
        472,
        21,
        332,
        177,
        389,
        338,
        104,
        66,
        485,
        125,
        413,
        193,
        24,
        232,
        255,
        458,
        211,
        25,
        392,
        184,
        3,
        348,
        18,
        390,
        77,
        473,
        457,
        39,
        422,
        101,
        215,
        113,
        212,
        170,
        110,
        306,
        257,
        375,
        396,
        233,
        112,
        149,
        368,
        53,
        159,
        267,
        259,
        444,
        86,
        429,
        87,
        329,
        475,
        13,
        254,
        360,
        325,
        496,
        40,
        78,
        129,
        189,
        305,
        91,
        417,
        418,
        124,
        315,
        438,
        137,
        181,
        300,
        456,
        178,
        38,
        96,
        111,
        262,
        251,
        359,
        462,
        490,
        206,
        5,
        281,
        122,
        79,
        174,
        15,
        465,
        103,
        250,
        74,
        450,
        73,
        280,
        265,
        495,
        486,
        95,
        445,
        345,
        43,
        426,
        369,
        328,
        19,
        239,
        224,
        343,
        466,
        270,
        384,
        470,
        23,
        44,
        161,
        138,
        434,
        452,
        17,
        398,
        296,
        166,
        311,
        342,
        335,
        97,
        282,
        236,
        65,
        385,
        70,
        220,
        477,
        9,
        198,
        346,
        205,
        88,
        365,
        357,
        273,
        116,
        59,
        22,
        72,
        339,
        302,
        69,
        247
    ],
    "Nb of functions evaluations": 400020,
    "Computational time in seconds": 1810.5043034553528,
    "Stopping criterion in evaluations": 400000
}